outputs/case_401.model.txt
practice_certificate_held = True
is_agent = True
guarantee_deposit_amount = 0
fee_disclosure_made = False
liability_insurance = True
guarantee_minimum_amount = 0
is_notary = True
guarantee_minimum_amount_set_by_authority = True
insurance_type = True
fee_charged = False
apply_agent_broker_regulations = True
bank_operate_agent = False
guarantee_insurance = False
is_broker = True
bank_operate_broker = False
bank_permitted_by_authority = False
qualification_and_management_rules_set_by_authority = True
within_authority_designated_scope = True
guarantee_minimum_amount_defined = True
license_permitted = True
broker_duty_of_care_and_fidelity = True
relevant_insurance_covered = True
broker_report_and_fee_disclosure_ok = True
bank_agent_or_broker_permitted = False
qualification_and_management_rules_set = True
relevant_insurance_type_ok = True
penalty = False
broker_fulfill_fidelity_duty = True
broker_exercise_duty_of_care = True
written_analysis_report_provided = True
agent_broker_notary_license_and_guarantee = True